proyfinal/src/viki/013/andrea/andrea-localstore/experimentInOfficeAgust.take6/worker_6/e339c22f-4240-4143-a000-9578e5495d66.als.cnf.out
Reading from standard input... Use '--help' for help.
============================[ Problem Statistics ]=============================
|                                                                             |
|  Number of variables:         87638                                         |
|  Number of clauses:          161767                                         |
|  Parse time:                   0.03 s                                       |
|                                                                             |
============================[ Search Statistics ]==============================
| Conflicts |          ORIGINAL         |          LEARNT          | Progress |
|           |    Vars  Clauses Literals |    Limit  Clauses Lit/Cl |          |
===============================================================================
|       100 |   63803   110269   275775 |    40431      100     42 | 27.197 % |
|       250 |   63802   110225   275685 |    44475      249     47 | 27.198 % |
|       475 |   63802   110225   275685 |    48922      474     58 | 27.198 % |
|       812 |   63802   110225   275685 |    53814      811     72 | 27.198 % |
|      1318 |   63802   110225   275685 |    59196     1317     79 | 27.198 % |
|      2077 |   63773   110107   275411 |    65116     1711     98 | 27.232 % |
|      3216 |   63773   110107   275411 |    71627     2850     77 | 27.231 % |
|      4924 |   63754   110031   275235 |    78790     4401     81 | 27.253 % |
|      7486 |   47722    63061   159482 |    86669     6583     74 | 45.546 % |
===============================================================================
restarts              : 46
conflicts             : 10913          (6854 /sec)
decisions             : 35810          (0.00 % random) (22492 /sec)
propagations          : 16966042       (10656098 /sec)
conflict literals     : 648716         (48.05 % deleted)
Memory used           : 27.10 MB
CPU time              : 1.59214 s

UNSATISFIABLE
